c turning on binary mode checking
c parsing input formula with 1151 variables and 3535 clauses
c finished parsing, read 21739766 bytes from proof file
c detected empty clause; start verification via backward checking
c 1726 of 3535 clauses in core                            
c 499488 of 603969 lemmas in core using 16237888 resolution steps
c 0 RAT lemmas in core; 193586 redundant literals in core lemmas
s VERIFIED
c verification time: 65.876 seconds
